=obj=                65.6666666666667
z                    65.6666666666667
floab                0
floac                0
fload                65.6666666666667
floae                0
floaf                65.6666666666667
floag                0
floah                0
floba                65.6666666666667
flobc                0
flobd                0
flobe                65.6666666666667
flobf                0
flobg                0
flobh                0
floca                55.6666666666667
flocb                0
flocd                0
floce                0
flocf                0
flocg                0
floch                62.6666666666667
floda                0
flodb                0
flodc                64.6666666666667
flode                56.6666666666667
flodf                0
flodg                0
flodh                0
floea                0
floeb                0
floec                65.6666666666667
floed                0
floef                0
floeg                65.6666666666667
floeh                0
flofa                0
flofb                61.6666666666667
flofc                0
flofd                0
flofe                0
flofg                0
flofh                65.6666666666667
floga                0
flogb                0
flogc                0
flogd                65.6666666666667
floge                0
flogf                50.6666666666667
flogh                0
floha                0
flohb                54.6666666666667
flohc                0
flohd                0
flohe                0
flohf                0
flohg                65.6666666666667
xab                  0
xac                  0
xad                  1
xae                  0
xaf                  1
xag                  0
xah                  0
xba                  1
xbc                  0
xbd                  0
xbe                  1
xbf                  0
xbg                  0
xbh                  0
xca                  1
xcb                  0
xcd                  0
xce                  0
xcf                  0
xcg                  0
xch                  1
xda                  0
xdb                  0
xdc                  1
xde                  1
xdf                  0
xdg                  0
xdh                  0
xea                  0
xeb                  0
xec                  1
xed                  0
xef                  0
xeg                  1
xeh                  0
xfa                  0
xfb                  1
xfc                  0
xfd                  0
xfe                  0
xfg                  0
xfh                  1
xga                  0
xgb                  0
xgc                  0
xgd                  1
xge                  0
xgf                  1
xgh                  0
xha                  0
xhb                  1
xhc                  0
xhd                  0
xhe                  0
xhf                  0
xhg                  1
faab                 0
faac                 0
faad                 34.6666666666667
faae                 0
faaf                 39.3333333333333
faag                 0
faah                 0
fabc                 0
fabd                 0
fabe                 0
fabf                 0
fabg                 0
fabh                 0
facb                 0
facd                 0
face                 0
facf                 0
facg                 0
fach                 0
fadb                 0
fadc                 7
fade                 14.6666666666667
fadf                 0
fadg                 0
fadh                 0
faeb                 0
faec                 0
faed                 0
faef                 0
faeg                 2.66666666666667
faeh                 0
fafb                 10
fafc                 0
fafd                 0
fafe                 0
fafg                 0
fafh                 16.3333333333333
fagb                 0
fagc                 0
fagd                 0
fage                 0
fagf                 0
fagh                 0
fahb                 0
fahc                 0
fahd                 0
fahe                 0
fahf                 0
fahg                 3.33333333333333
fbac                 0
fbad                 13
fbae                 0
fbaf                 18
fbag                 0
fbah                 0
fbba                 45
fbbc                 0
fbbd                 0
fbbe                 36
fbbf                 0
fbbg                 0
fbbh                 0
fbca                 0
fbcd                 0
fbce                 0
fbcf                 0
fbcg                 0
fbch                 0
fbda                 0
fbdc                 0
fbde                 0
fbdf                 0
fbdg                 0
fbdh                 0
fbea                 0
fbec                 15
fbed                 0
fbef                 0
fbeg                 9
fbeh                 0
fbfa                 0
fbfc                 0
fbfd                 0
fbfe                 0
fbfg                 0
fbfh                 9
fbga                 0
fbgc                 0
fbgd                 0
fbge                 0
fbgf                 0
fbgh                 0
fbha                 0
fbhc                 0
fbhd                 0
fbhe                 0
fbhf                 0
fbhg                 0
fcab                 0
fcad                 17
fcae                 0
fcaf                 5.33333333333333
fcag                 0
fcah                 0
fcba                 0
fcbd                 0
fcbe                 0
fcbf                 0
fcbg                 0
fcbh                 0
fcca                 35.3333333333333
fccb                 0
fccd                 0
fcce                 0
fccf                 0
fccg                 0
fcch                 27.6666666666667
fcda                 0
fcdb                 0
fcde                 6
fcdf                 0
fcdg                 0
fcdh                 0
fcea                 0
fceb                 0
fced                 0
fcef                 0
fceg                 0
fceh                 0
fcfa                 0
fcfb                 0
fcfd                 0
fcfe                 0
fcfg                 0
fcfh                 0.333333333333333
fcga                 0
fcgb                 0
fcgd                 0
fcge                 0
fcgf                 0
fcgh                 0
fcha                 0
fchb                 9
fchd                 0
fche                 0
fchf                 0
fchg                 11
fdab                 0
fdac                 0
fdae                 0
fdaf                 0
fdag                 0
fdah                 0
fdba                 0
fdbc                 0
fdbe                 0
fdbf                 0
fdbg                 0
fdbh                 0
fdca                 7
fdcb                 0
fdce                 0
fdcf                 0
fdcg                 0
fdch                 17
fdda                 0
fddb                 0
fddc                 39
fdde                 24
fddf                 0
fddg                 0
fddh                 0
fdea                 0
fdeb                 0
fdec                 0
fdef                 0
fdeg                 17
fdeh                 0
fdfa                 0
fdfb                 0
fdfc                 0
fdfe                 0
fdfg                 0
fdfh                 0
fdga                 0
fdgb                 0
fdgc                 0
fdge                 0
fdgf                 6
fdgh                 0
fdha                 0
fdhb                 8
fdhc                 0
fdhe                 0
fdhf                 0
fdhg                 0
feab                 0
feac                 0
fead                 0
feaf                 0
feag                 0
feah                 0
feba                 0
febc                 0
febd                 0
febf                 0
febg                 0
febh                 0
feca                 8
fecb                 0
fecd                 0
fecf                 0
fecg                 0
fech                 18
feda                 0
fedb                 0
fedc                 0
fedf                 0
fedg                 0
fedh                 0
feea                 0
feeb                 0
feec                 38
feed                 0
feef                 0
feeg                 37
feeh                 0
fefa                 0
fefb                 4.99999999999999
fefc                 0
fefd                 0
fefg                 0
fefh                 0
fega                 0
fegb                 0
fegc                 0
fegd                 9
fegf                 14
fegh                 0
feha                 0
fehb                 7.00000000000001
fehc                 0
fehd                 0
fehf                 0
fehg                 0
ffab                 0
ffac                 0
ffad                 1
ffae                 0
ffag                 0
ffah                 0
ffba                 6
ffbc                 0
ffbd                 0
ffbe                 20
ffbg                 0
ffbh                 0
ffca                 0
ffcb                 0
ffcd                 0
ffce                 0
ffcg                 0
ffch                 0
ffda                 0
ffdb                 0
ffdc                 0
ffde                 0
ffdg                 0
ffdh                 0
ffea                 0
ffeb                 0
ffec                 11
ffed                 0
ffeg                 0
ffeh                 0
fffa                 0
fffb                 37
fffc                 0
fffd                 0
fffe                 0
fffg                 0
fffh                 33
ffga                 0
ffgb                 0
ffgc                 0
ffgd                 6
ffge                 0
ffgh                 0
ffha                 0
ffhb                 0
ffhc                 0
ffhd                 0
ffhe                 0
ffhg                 21
fgab                 0
fgac                 0
fgad                 0
fgae                 0
fgaf                 0
fgah                 0
fgba                 0.666666666666666
fgbc                 0
fgbd                 0
fgbe                 0
fgbf                 0
fgbh                 0
fgca                 5.33333333333333
fgcb                 0
fgcd                 0
fgce                 0
fgcf                 0
fgch                 0
fgda                 0
fgdb                 0
fgdc                 10.6666666666667
fgde                 11.6666666666667
fgdf                 0
fgdh                 0
fgea                 0
fgeb                 0
fgec                 1.66666666666665
fged                 0
fgef                 0
fgeh                 0
fgfa                 0
fgfb                 9.66666666666667
fgfc                 0
fgfd                 0
fgfe                 0
fgfh                 7
fgga                 0
fggb                 0
fggc                 0
fggd                 36.3333333333333
fgge                 0
fggf                 28.6666666666667
fggh                 0
fgha                 0
fghb                 0
fghc                 0
fghd                 0
fghe                 0
fghf                 0
fhab                 0
fhac                 0
fhad                 0
fhae                 0
fhaf                 3
fhag                 0
fhba                 14
fhbc                 0
fhbd                 0
fhbe                 9.666666666666661
fhbf                 0
fhbg                 0
fhca                 0
fhcb                 0
fhcd                 0
fhce                 0
fhcf                 0
fhcg                 0
fhda                 0
fhdb                 0
fhdc                 8
fhde                 0.333333333333343
fhdf                 0
fhdg                 0
fhea                 0
fheb                 0
fhec                 0
fhed                 0
fhef                 0
fheg                 0
fhfa                 0
fhfb                 0
fhfc                 0
fhfd                 0
fhfe                 0
fhfg                 0
fhga                 0
fhgb                 0
fhgc                 0
fhgd                 14.3333333333333
fhge                 0
fhgf                 2
fhha                 0
fhhb                 30.6666666666667
fhhc                 0
fhhd                 0
fhhe                 0
fhhf                 0
fhhg                 30.3333333333333
